c planted 3-SAT n=100 m=430 seed=999 (sat by construction)
p cnf 100 430
96 -79 18 0
-46 31 -2 0
-100 64 6 0
93 -14 44 0
52 -97 -85 0
-87 -4 -99 0
-52 38 66 0
-100 -93 -74 0
14 70 -35 0
96 28 -18 0
-80 24 44 0
-97 55 -87 0
51 -75 36 0
-19 -96 -79 0
71 -34 -8 0
7 47 57 0
20 32 -66 0
55 36 -67 0
11 31 -98 0
-92 60 62 0
-99 -1 14 0
72 -22 -64 0
-14 -40 -71 0
-39 43 14 0
26 -83 96 0
94 83 81 0
-80 27 63 0
32 12 -7 0
38 29 -13 0
78 -66 -77 0
-76 35 96 0
44 96 -84 0
80 -52 72 0
17 91 -99 0
93 -29 -91 0
39 -76 -64 0
-42 33 81 0
40 -41 28 0
-36 -69 -72 0
-73 5 91 0
-24 -22 -88 0
-57 -17 -31 0
-2 45 68 0
83 6 -24 0
-77 -7 13 0
15 -51 1 0
-53 68 87 0
-65 -13 -17 0
9 -58 -62 0
-43 -99 -87 0
94 -23 41 0
31 -86 -47 0
40 79 51 0
-1 25 -28 0
-8 -76 -16 0
10 -27 24 0
18 -28 40 0
-73 -52 40 0
-13 83 -62 0
-16 15 57 0
-34 78 13 0
6 18 50 0
-72 22 -33 0
-36 52 27 0
24 -49 73 0
-87 -52 62 0
-18 -59 27 0
-46 7 -17 0
40 -44 15 0
100 -89 -95 0
38 31 14 0
-70 54 -4 0
-1 -36 -24 0
87 19 8 0
-73 43 18 0
38 41 62 0
46 -60 -51 0
86 58 -24 0
43 -69 -15 0
30 -90 79 0
-14 99 -38 0
56 68 -28 0
73 -10 -3 0
89 -42 -91 0
69 -59 78 0
95 -58 78 0
-67 80 -78 0
93 82 43 0
-40 -8 -39 0
-75 76 15 0
-17 7 86 0
-64 11 44 0
-41 56 -95 0
50 20 -7 0
60 16 58 0
78 -69 -38 0
-30 8 -4 0
22 12 -47 0
-67 34 59 0
10 -56 -9 0
17 90 100 0
56 86 71 0
51 -20 -65 0
-67 -20 -50 0
70 -71 37 0
-54 -66 -24 0
13 -58 -68 0
-33 23 43 0
-28 14 82 0
-50 38 77 0
-3 36 11 0
-97 59 12 0
42 25 97 0
81 65 95 0
-37 34 -70 0
17 40 29 0
-12 -76 91 0
89 34 97 0
-35 55 67 0
-41 16 -15 0
-13 -16 75 0
66 -87 -72 0
58 -92 18 0
39 -87 42 0
89 -41 -13 0
-67 -23 -26 0
52 -61 -65 0
-66 24 48 0
-62 37 -35 0
85 41 -3 0
-23 -58 -35 0
-7 -4 -95 0
-2 -21 61 0
-61 18 -23 0
-89 86 10 0
-27 -8 -57 0
81 -51 6 0
-21 -25 -85 0
-42 -72 78 0
2 -63 98 0
94 -46 -56 0
91 -70 -32 0
76 -11 12 0
-3 -39 -41 0
-88 -23 -34 0
-13 -52 9 0
-85 -53 9 0
-86 57 -92 0
-50 -33 7 0
-16 -81 -19 0
-27 8 -36 0
-88 -35 -51 0
-99 -45 62 0
-63 -41 -48 0
9 -29 -65 0
61 90 -74 0
46 95 -56 0
-44 -31 4 0
-16 66 -10 0
-79 -28 -60 0
-63 -13 -67 0
88 11 -94 0
-16 -57 -43 0
-99 -70 46 0
81 -58 50 0
35 51 -43 0
-54 -7 68 0
-24 -40 34 0
-100 36 93 0
70 4 -92 0
71 -93 76 0
-79 54 91 0
73 -12 -39 0
20 -77 -50 0
51 -23 35 0
10 87 -21 0
64 45 -33 0
-92 8 -94 0
60 56 -89 0
-52 23 72 0
74 36 39 0
-72 48 -60 0
89 -72 -99 0
26 20 44 0
27 25 -91 0
-85 30 -91 0
47 -53 26 0
31 -32 -83 0
40 19 64 0
73 78 43 0
34 96 14 0
83 -79 95 0
92 -57 49 0
13 57 69 0
6 -80 -72 0
26 -23 7 0
-23 69 76 0
-83 -14 -64 0
-41 37 18 0
20 32 76 0
40 67 59 0
-70 -29 27 0
13 -28 -9 0
-90 63 80 0
-37 -71 58 0
17 -85 8 0
12 65 61 0
14 -36 -20 0
-70 -74 56 0
-92 20 -34 0
30 -81 33 0
-28 -10 34 0
-13 17 -95 0
13 -73 -51 0
-95 22 94 0
-3 74 -33 0
7 70 -27 0
-57 77 64 0
-80 7 74 0
-97 -58 -89 0
7 -54 -51 0
7 58 32 0
1 50 18 0
48 -77 -71 0
48 -4 -78 0
89 63 -75 0
-83 -81 96 0
-90 -82 95 0
39 -97 -73 0
27 -24 -11 0
71 -39 -55 0
95 -52 -45 0
-100 -43 71 0
1 -51 59 0
-85 -5 90 0
-85 60 -20 0
-92 40 57 0
36 45 71 0
7 -49 -94 0
-7 -54 93 0
72 3 -38 0
-47 13 -45 0
46 -18 67 0
93 82 22 0
-14 -50 3 0
-7 -25 -74 0
-36 98 24 0
61 72 5 0
30 -90 -83 0
-30 -97 -89 0
81 -18 27 0
51 -85 -15 0
-89 -21 -24 0
44 70 -28 0
64 30 32 0
31 -68 -67 0
-52 9 24 0
-86 92 -83 0
18 -6 52 0
-82 6 55 0
41 -73 -43 0
-14 -74 99 0
52 -35 62 0
-92 -17 -11 0
94 -13 -77 0
-36 47 55 0
-21 -49 -99 0
-95 -29 -94 0
-41 44 35 0
-62 -3 -89 0
30 39 56 0
-13 -57 54 0
81 100 98 0
34 -14 2 0
69 -85 -60 0
29 -71 -23 0
-63 -93 -82 0
2 56 26 0
-67 92 -49 0
62 29 45 0
60 28 -81 0
30 22 36 0
42 3 -13 0
10 9 -46 0
-23 33 -74 0
45 53 80 0
25 64 45 0
80 -12 5 0
1 -52 30 0
91 52 -99 0
50 -48 -71 0
62 -95 69 0
-90 -60 -28 0
-29 -28 -49 0
99 42 62 0
-53 62 6 0
57 -89 -41 0
92 -40 11 0
44 97 5 0
20 58 -38 0
-73 84 -82 0
7 -81 -33 0
-61 79 -98 0
96 -30 34 0
-54 -87 63 0
71 -6 42 0
7 -38 -11 0
55 16 -60 0
-35 8 -34 0
71 -40 -48 0
99 -78 -79 0
21 -93 23 0
-9 44 -11 0
-52 13 -65 0
31 9 29 0
-87 94 82 0
-69 58 -50 0
-73 80 -81 0
61 52 9 0
33 20 -49 0
64 52 6 0
-90 91 -85 0
-98 -60 -75 0
-71 87 60 0
-11 -64 -93 0
58 -83 -43 0
-17 46 43 0
53 -7 -16 0
-83 -59 -34 0
21 -13 -2 0
71 -58 20 0
41 -5 -10 0
95 -12 71 0
-40 -69 -34 0
-37 -14 -35 0
-28 -66 -50 0
-77 -4 82 0
30 4 -24 0
-80 66 21 0
-52 -96 -84 0
22 38 -82 0
15 -73 -2 0
39 22 -44 0
-100 84 72 0
-57 54 -4 0
2 54 45 0
25 -86 48 0
33 43 -29 0
47 -59 74 0
58 85 73 0
-96 45 -71 0
44 -48 24 0
74 -37 -3 0
-51 -62 -82 0
-96 -54 -100 0
4 -32 -1 0
40 49 53 0
15 -94 -76 0
-99 -53 10 0
-1 -71 33 0
-77 -66 36 0
-80 64 14 0
-5 -30 60 0
-19 -10 -98 0
40 -55 72 0
65 50 -61 0
-38 83 -1 0
3 -43 50 0
-18 -97 -100 0
-42 25 -21 0
31 -15 13 0
-38 -95 32 0
35 78 -22 0
33 50 35 0
-78 -84 90 0
42 68 60 0
8 95 -64 0
-65 -14 -20 0
-21 71 15 0
-3 -58 -32 0
-80 62 15 0
60 -61 -68 0
-16 71 4 0
-9 100 -32 0
-27 -43 79 0
22 49 -71 0
42 89 -59 0
82 66 -24 0
-66 -77 24 0
83 -38 54 0
76 10 57 0
26 -10 -7 0
-100 1 55 0
-72 -64 1 0
-20 32 -97 0
-82 31 -51 0
22 52 10 0
88 95 -67 0
-44 7 46 0
-14 -73 -84 0
-46 24 13 0
35 -89 -70 0
2 33 -15 0
-88 -52 50 0
-35 76 -51 0
-86 61 51 0
94 54 -44 0
83 2 -64 0
32 -57 30 0
61 -9 40 0
-9 70 5 0
-49 -66 37 0
31 3 -4 0
85 -18 81 0
-79 -44 36 0
-32 -78 48 0
26 -44 -38 0
81 -47 -61 0
-51 23 91 0
-72 -1 48 0
-39 -2 -59 0
-65 76 -19 0
-9 2 25 0
-67 -36 57 0
-62 93 -5 0
31 -59 -77 0
-74 72 60 0
-54 -42 28 0
6 96 13 0
-66 -86 54 0
