c planted 3-SAT n=50 m=218 seed=12345 (sat by construction)
p cnf 50 218
-3 -11 20 0
15 23 35 0
4 -46 -29 0
-1 -50 -46 0
31 40 -4 0
27 -36 13 0
10 -6 32 0
-11 -19 10 0
-1 -43 -32 0
-7 17 -33 0
30 -27 12 0
22 -12 -26 0
-16 27 33 0
-30 -48 -13 0
-34 15 -22 0
50 43 4 0
34 -35 37 0
46 41 3 0
20 -29 40 0
17 29 2 0
41 -6 -2 0
32 -12 -18 0
25 -5 40 0
13 11 6 0
13 -1 -10 0
-22 26 21 0
-38 14 -17 0
19 3 -6 0
-27 34 -1 0
38 49 11 0
-2 -25 -23 0
21 31 -29 0
-9 -25 37 0
8 -7 40 0
14 34 7 0
-15 22 -48 0
-44 -31 -12 0
-41 14 -11 0
42 -13 -5 0
8 7 17 0
-32 -24 -47 0
42 29 -33 0
44 -24 16 0
8 21 16 0
-14 47 -40 0
-41 -50 -12 0
-2 31 -22 0
2 -47 -26 0
15 -6 14 0
37 38 -9 0
20 33 -19 0
-38 -26 42 0
36 18 33 0
45 31 -42 0
47 -8 -18 0
-31 6 25 0
40 -1 49 0
44 18 -10 0
21 -28 -3 0
2 23 -43 0
-24 45 -37 0
32 -29 45 0
31 15 -40 0
-39 15 27 0
-3 -49 46 0
25 -9 24 0
22 -17 38 0
40 37 -20 0
38 29 42 0
-19 44 4 0
-18 14 -17 0
-10 48 -15 0
2 -3 10 0
-10 44 33 0
48 -5 10 0
24 -22 14 0
22 -11 -17 0
9 -25 2 0
50 -44 -10 0
17 -19 -45 0
-36 -13 -25 0
-11 -30 -33 0
-7 -27 10 0
8 -26 17 0
-48 12 41 0
8 -43 -21 0
38 17 14 0
46 40 28 0
31 15 38 0
-15 -49 -5 0
36 -14 -12 0
-7 -9 1 0
-8 -35 20 0
38 15 -22 0
-7 20 -29 0
-29 21 -31 0
-25 16 -27 0
-46 15 25 0
45 31 -24 0
-2 -7 26 0
12 16 48 0
25 15 7 0
-38 -29 27 0
-27 -4 -12 0
7 -24 29 0
35 -42 7 0
9 3 -6 0
-37 -29 2 0
22 27 36 0
6 -12 -16 0
-6 -22 18 0
-36 20 45 0
5 7 -30 0
47 46 -37 0
23 30 -21 0
-2 -46 -23 0
-2 43 -16 0
-41 1 13 0
33 -42 12 0
22 -28 -16 0
-1 -15 38 0
-12 -49 -3 0
30 9 34 0
2 7 -11 0
-22 -39 -28 0
33 23 14 0
8 11 -42 0
8 -42 18 0
-37 49 31 0
-1 -21 48 0
-24 39 -46 0
-12 -50 15 0
3 -44 -34 0
-14 38 -28 0
-38 -7 36 0
-9 -27 -38 0
13 49 30 0
-50 9 -23 0
28 -47 -32 0
28 -6 -16 0
42 -33 1 0
44 21 28 0
-49 -14 35 0
46 -24 9 0
33 -45 -6 0
-25 -46 8 0
7 46 -36 0
21 -4 -13 0
-39 -47 -14 0
26 -10 43 0
19 44 5 0
1 -13 18 0
41 -1 -29 0
-1 -33 -8 0
-26 -49 -19 0
6 -38 -23 0
-49 1 -40 0
-13 27 35 0
22 -44 20 0
19 -46 12 0
-6 -48 -16 0
-1 -25 33 0
-19 -5 -4 0
6 -15 -49 0
13 -42 12 0
2 50 25 0
-35 31 42 0
28 29 -38 0
-34 -17 49 0
-41 -6 1 0
18 -33 -42 0
-30 42 17 0
-27 2 33 0
22 -38 11 0
8 -24 -13 0
-4 -29 41 0
-44 -2 32 0
11 -20 -39 0
-20 -15 9 0
-6 23 5 0
-37 -9 -4 0
-22 48 46 0
2 6 45 0
30 28 -17 0
44 26 -35 0
-4 1 45 0
12 27 50 0
-3 41 21 0
-15 33 -18 0
19 -7 -41 0
22 -50 -37 0
-10 48 -26 0
-23 -10 4 0
14 -28 -46 0
-4 -19 -23 0
-36 -31 -10 0
-24 13 -48 0
2 35 3 0
-17 -20 6 0
-12 -17 -3 0
-48 -10 -21 0
47 -4 -13 0
34 38 19 0
-31 4 -6 0
-4 26 8 0
43 4 -50 0
-49 50 -25 0
-43 -49 -11 0
4 38 36 0
-40 -21 -49 0
32 -48 19 0
-48 -7 -33 0
15 -43 -24 0
-6 -41 32 0
40 31 19 0
18 -23 4 0
-36 45 27 0
35 40 44 0
